&bands
outdir = '/work/band/Si',
prefix='Si',
filband='Si.band',
lsym=.true.
/