&bands
outdir = './work/band/',
prefix='Si',
filband='Si.band',
lsym=.true.
/