&bands
outdir = './work/band/',
prefix='NaCdAs',
filband='NaCdAs.band',
lsym=.true.
/