&CONTROL
    calculation = 'bands'
    restart_mode='from_scratch',
    prefix='Bi'
    pseudo_dir='../../pseudo/nonsoc/'
    outdir='./work/rep/'
    tstress=.true.
    tprnfor=.true.
    wf_collect=.true.
/
&SYSTEM
    ibrav = 0
    nat = 2
    ntyp = 1
    ecutwfc=100.
    occupations='smearing'
    smearing='m-p'
    degauss=0.01
    use_all_frac=.true.
/
&ELECTRONS
    mixing_beta=0.3
    conv_thr=1.0d-8
/
ATOMIC_SPECIES
Bi	208.9804	Bi.upf
ATOMIC_POSITIONS angstrom
Bi      -0.0000000000     0.0000000000     3.2000381695
Bi       2.3047933600     1.3306730668     0.7917863838
K_POINTS crystal
8
0.0	0.0	0.0	1
0.5	0.0	0.0	1
0.0	0.5	0.0	1
0.0	0.0	0.5	1
0.0	0.5	0.5	1
0.5	0.0	0.5	1
0.5	0.5	0.0	1
0.5	0.5	0.5	1
CELL_PARAMETERS angstrom
    2.3047933600     1.3306730668     3.9918245533
   -2.3047933600     1.3306730668     3.9918245533
    0.0000000000    -2.6613461336     3.9918245533