&CONTROL
    calculation = 'bands'
    restart_mode='from_scratch',
    prefix='Bi'
    pseudo_dir='~/research/dft/ONCVPSP-master/abinit/'
    outdir='/work/band/Bi'
    tstress=.true.
    tprnfor=.true.
    wf_collect=.true.
/
&SYSTEM
    ibrav = 0
    nat = 2
    ntyp = 1
    ecutwfc=100.
    occupations='smearing'
    smearing='m-p'
    degauss=0.01
    use_all_frac=.true.
    lspinorb=.true.
    noncolin=.true.
/
&ELECTRONS
    mixing_beta=0.3
    conv_thr=1.0d-8
/
ATOMIC_SPECIES
Bi	208.9804	Bi_ONCV_PBE_fr.upf
ATOMIC_POSITIONS angstrom
Bi      -0.0000000000     0.0000000000     3.2000381695
Bi       2.3047933600     1.3306730668     0.7917863838
K_POINTS crystal_b
10
0.0000000000	0.0000000000	0.0000000000	60
0.5000000000	0.5000000000	0.5000000000	60
0.7592520352	0.2407479648	0.5000000000	1
0.5000000000	-0.2407479648	0.2407479648	60
0.5000000000	0.0000000000	0.0000000000	60
0.0000000000	0.0000000000	0.0000000000	60
0.3703739824	-0.3703739824	0.0000000000	1
0.6296260176	0.0000000000	0.3703739824	60
0.5000000000	0.0000000000	0.5000000000	60
0.0000000000	0.0000000000	0.0000000000	60
CELL_PARAMETERS angstrom
    2.3047933600     1.3306730668     3.9918245533
   -2.3047933600     1.3306730668     3.9918245533
    0.0000000000    -2.6613461336     3.9918245533