&bands
outdir = '/work/band/Bi',
prefix='Bi',
filband='Bi.band',
lsym=.true.
/