&CONTROL
    calculation = 'bands'
    restart_mode='from_scratch',
    prefix='NaCdAs'
    pseudo_dir='../../../pseudo/soc'
    outdir='./work/rep'
    tstress=.true.
    tprnfor=.true.
    wf_collect=.true.
/
&SYSTEM
    ibrav = 0
    nat = 12
    ntyp = 3
    ecutwfc=100.
    occupations='smearing'
    smearing='m-p'
    degauss=0.01
    use_all_frac=.true.
    lspinorb=.true.
    noncolin=.true.
/
&ELECTRONS
    mixing_beta=0.3
    conv_thr=1.0d-8
/
ATOMIC_SPECIES
Na	22.989769	Na.upf
Cd	112.411		Cd.upf
As	74.9216		As.upf
ATOMIC_POSITIONS crystal
Na	0.0184820000	0.2500000000	0.1734590000
Na	0.9815180000	0.7500000000	0.8265410000
Na	0.4815180000	0.7500000000	0.6734590000
Na	0.5184820000	0.2500000000	0.3265410000
Cd	0.1500210000	0.2500000000	0.5744130000
Cd	0.8499790000	0.7500000000	0.4255870000
Cd	0.3499790000	0.7500000000	0.0744130000
Cd	0.6500210000	0.2500000000	0.9255870000
As	0.2214520000	0.7500000000	0.3907850000
As	0.7785480000	0.2500000000	0.6092150000
As	0.2785480000	0.2500000000	0.8907850000
As	0.7214520000	0.7500000000	0.1092150000
K_POINTS crystal
8
0.0	0.0	0.0	1
0.5	0.0	0.0	1
0.0	0.5	0.0	1
0.0	0.0	0.5	1
0.0	0.5	0.5	1
0.5	0.0	0.5	1
0.5	0.5	0.0	1
0.5	0.5	0.5	1
CELL_PARAMETERS angstrom
    7.6494810000     0.0000000000     0.0000000000
    0.0000000000     4.5188670000     0.0000000000
    0.0000000000     0.0000000000     8.1790120000