&bands
outdir = './work/band/',
prefix='Bi',
filband='Bi.band',
lsym=.true.
/